# NAME: tetrahedron
# COMMENT: # http://www.dharwadker.org/vertex_coloring/ # Tetrahedron # chromatic number 4 # maximum independent set 1
# These are graphs in the MQLIB instance library [2] all have a 0.912 approximation ratio with respect to GW. For these instances, the optimal cut is also always 2/3 of the total number of edges.
# [2] Iain Dunning, Swati Gupta, and John Silberholz. 2018. What works best when? A systematic evaluation of heuristics for Max-Cut and QUBO. INFORMS Journal on Computing 30, 3 (2018), 608–624.
4 6
1 2 1
1 3 1
1 4 1
2 3 1
2 4 1
3 4 1
